qbf_easy_train/easy_5035_SAT.qdimacs
p cnf 38 106
a 25 12 28 0
e 1 2 3 4 5 6 7 8 9 10 11 13 14 15 16 17 18 19 20 21 22 23 24 26 27 29 30 31 32 33 34 35 36 37 38 0
2 -3 -4 0
-2 3 -4 0
2 3 4 0
-2 -3 4 0
-6 -5 0
-6 5 0
8 6 0
8 -7 0
-6 7 -8 0
-9 -4 0
-9 -8 0
4 8 9 0
10 1 0
10 9 0
-1 -9 -10 0
-12 11 0
-12 -6 0
-11 6 12 0
-13 -11 0
-13 -11 0
11 13 0
-14 -13 0
-14 -8 0
13 8 14 0
-16 9 0
-16 2 0
-9 -2 16 0
-17 15 0
-17 16 0
-15 -16 17 0
-18 14 0
-18 17 0
-14 -17 18 0
19 15 0
19 -2 0
-15 2 -19 0
-4 19 -20 0
4 -19 -20 0
-4 -19 20 0
4 19 20 0
-4 15 -21 0
4 -15 -21 0
-4 -15 21 0
4 15 21 0
-22 -21 0
-22 1 0
21 -1 22 0
23 20 0
23 -22 0
-20 22 -23 0
-24 -2 0
-24 -21 0
2 21 24 0
25 5 0
25 -24 0
-5 24 -25 0
26 23 0
26 -25 0
-23 25 -26 0
27 -18 0
27 26 0
18 -26 -27 0
-28 -9 0
-28 -2 0
9 2 28 0
-29 24 0
-29 1 0
-24 -1 29 0
-30 -2 0
-30 -15 0
2 15 30 0
-11 31 -32 0
11 -31 -32 0
-11 -31 32 0
11 31 32 0
-33 -30 0
-33 -32 0
30 32 33 0
34 -29 0
34 -33 0
29 33 -34 0
-28 34 -35 0
28 -34 -35 0
-28 -34 35 0
28 34 35 0
36 27 0
36 -35 0
-27 35 -36 0
37 -12 0
37 -36 0
12 36 -37 0
-10 37 -38 0
10 -37 -38 0
-10 -37 38 0
10 37 38 0
-17 -27 -12 0
16 27 31 20 35 -19 0
4 23 28 -14 -1 0
-10 35 -22 0
-3 36 35 9 0
33 -18 -21 5 0
-26 30 13 16 34 -36 -29 -31 0
-22 4 -6 23 36 -33 -12 0
-11 37 -19 20 0
12 -36 -23 -30 29 -14 -35 33 0
38 0
