sat_easy_train/easy_5035_SAT.dimacs
p cnf 118 389
4 -2 0
4 -3 0
2 3 -4 0
-1 4 -5 0
1 -4 -5 0
-1 -4 5 0
1 4 5 0
-6 -7 -8 0
6 7 -8 0
-6 7 8 0
6 -7 8 0
9 1 0
9 8 0
-1 -8 -9 0
-9 10 0
9 10 0
11 10 0
11 -8 0
-10 8 -11 0
12 8 0
12 11 0
-8 -11 -12 0
-13 12 0
-13 7 0
-12 -7 13 0
-14 7 0
-14 -9 0
-7 9 14 0
17 15 0
17 -16 0
-15 16 -17 0
-17 -15 -18 0
17 15 -18 0
-17 15 18 0
17 -15 18 0
14 18 -19 0
-14 -18 -19 0
14 -18 19 0
-14 18 19 0
21 19 0
21 -20 0
-19 20 -21 0
-13 -21 -22 0
13 21 -22 0
-13 21 22 0
13 -21 22 0
-2 -7 -23 0
2 7 -23 0
-2 7 23 0
2 -7 23 0
-24 23 0
-24 -11 0
-23 11 24 0
25 22 0
25 24 0
-22 -24 -25 0
-5 -25 -26 0
5 25 -26 0
-5 25 26 0
5 -25 26 0
27 6 -28 0
-27 -6 -28 0
27 -6 28 0
-27 6 28 0
-29 -28 0
-29 15 0
28 -15 29 0
-27 29 -30 0
27 -29 -30 0
-27 -29 30 0
27 29 30 0
31 -27 0
31 -2 0
27 2 -31 0
-33 -32 0
-33 20 0
32 -20 33 0
34 16 0
34 -33 0
-16 33 -34 0
-35 34 0
-35 2 0
-34 -2 35 0
-36 -31 0
-36 35 0
31 -35 36 0
-38 -16 0
-38 37 0
16 -37 38 0
-40 -38 0
-40 -39 0
38 39 40 0
-40 -10 -41 0
40 10 -41 0
-40 10 41 0
40 -10 41 0
42 -36 0
42 -41 0
36 41 -42 0
43 -30 0
43 42 0
30 -42 -43 0
-44 26 0
-44 -43 0
-26 43 44 0
-45 32 0
-45 11 0
-32 -11 45 0
46 -20 0
46 -28 0
20 28 -46 0
-46 6 -47 0
46 -6 -47 0
-46 -6 47 0
46 6 47 0
48 10 0
48 4 0
-10 -4 -48 0
49 -47 0
49 -48 0
47 48 -49 0
-50 45 0
-50 49 0
-45 -49 50 0
51 37 0
51 -18 0
-37 18 -51 0
52 -6 0
52 -51 0
6 51 -52 0
53 -14 0
53 3 0
14 -3 -53 0
-53 -18 -54 0
53 18 -54 0
-53 18 54 0
53 -18 54 0
-52 -54 -55 0
52 54 -55 0
-52 54 55 0
52 -54 55 0
-56 -40 0
-56 37 0
40 -37 56 0
-4 -15 -57 0
4 15 -57 0
-4 15 57 0
4 -15 57 0
-8 9 -58 0
8 -9 -58 0
-8 -9 58 0
8 9 58 0
58 -11 -59 0
-58 11 -59 0
58 11 59 0
-58 -11 59 0
60 -59 0
60 -13 0
59 13 -60 0
-11 37 -61 0
11 -37 -61 0
-11 -37 61 0
11 37 61 0
62 -32 0
62 -8 0
32 8 -62 0
63 -61 0
63 62 0
61 -62 -63 0
60 63 -64 0
-60 -63 -64 0
60 -63 64 0
-60 63 64 0
-65 -17 0
-65 -14 0
17 14 65 0
-66 -65 0
-66 6 0
65 -6 66 0
67 64 0
67 66 0
-64 -66 -67 0
-57 -67 -68 0
57 67 -68 0
-57 67 68 0
57 -67 68 0
-69 -56 0
-69 -68 0
56 68 69 0
58 -7 -70 0
-58 7 -70 0
58 7 70 0
-58 -7 70 0
-15 -46 -71 0
15 46 -71 0
-15 46 71 0
15 -46 71 0
-72 -1 0
-72 -37 0
1 37 72 0
27 72 -73 0
-27 -72 -73 0
27 -72 73 0
-27 72 73 0
-74 71 0
-74 73 0
-71 -73 74 0
-70 -74 -75 0
70 74 -75 0
-70 74 75 0
70 -74 75 0
-76 40 0
-76 38 0
-40 -38 76 0
75 -76 -77 0
-75 76 -77 0
75 76 77 0
-75 -76 77 0
78 69 0
78 -77 0
-69 77 -78 0
-55 -78 -79 0
55 78 -79 0
-55 78 79 0
55 -78 79 0
80 50 0
80 -79 0
-50 79 -80 0
-81 -11 0
-81 32 0
11 -32 81 0
-82 81 0
-82 81 0
-81 82 0
-83 -16 0
-83 -39 0
16 39 83 0
84 82 0
84 83 0
-82 -83 -84 0
85 -17 0
85 84 0
17 -84 -85 0
87 2 0
87 -11 0
-2 11 -87 0
88 -86 0
88 87 0
86 -87 -88 0
-89 85 0
-89 -88 0
-85 88 89 0
90 20 0
90 86 0
-20 -86 -90 0
54 8 -92 0
-54 -8 -92 0
54 -8 92 0
-54 8 92 0
-93 -1 0
-93 92 0
1 -92 93 0
-91 93 -94 0
91 -93 -94 0
-91 -93 94 0
91 93 94 0
-95 -90 0
-95 -94 0
90 94 95 0
96 -89 0
96 -95 0
89 95 -96 0
97 23 0
97 -40 0
-23 40 -97 0
83 -40 -98 0
-83 40 -98 0
83 40 98 0
-83 -40 98 0
-99 39 0
-99 98 0
-39 -98 99 0
-97 -99 -100 0
97 99 -100 0
-97 99 100 0
97 -99 100 0
101 96 0
101 100 0
-96 -100 -101 0
102 80 0
102 -101 0
-80 101 -102 0
103 -20 0
103 -32 0
20 32 -103 0
-105 104 0
-105 -15 0
-104 15 105 0
106 -3 0
106 39 0
3 -39 -106 0
107 105 0
107 -106 0
-105 106 -107 0
23 -27 -108 0
-23 27 -108 0
23 27 108 0
-23 -27 108 0
-109 107 0
-109 -108 0
-107 108 109 0
110 -103 0
110 -109 0
103 109 -110 0
-111 59 0
-111 -16 0
-59 16 111 0
-112 111 0
-112 -39 0
-111 39 112 0
-113 110 0
-113 -112 0
-110 112 113 0
114 -102 0
114 -113 0
102 113 -114 0
44 114 -115 0
-44 -114 -115 0
44 -114 115 0
-44 114 115 0
-117 116 0
-117 -4 0
-116 4 117 0
115 -117 -118 0
-115 117 -118 0
115 117 118 0
-115 -117 118 0
53 -44 90 0
62 80 32 99 0
24 27 -32 -108 117 0
-45 -8 59 -111 101 0
40 55 -42 103 7 66 0
-47 -68 -27 -70 33 69 0
57 98 -49 40 0
-94 -5 106 67 -71 0
61 91 0
98 113 73 0
-5 -89 -113 0
-107 95 -88 58 -16 -49 0
-48 -117 108 -105 0
25 106 0
67 35 -76 49 0
-21 -63 -28 0
-79 92 0
-52 -104 -95 78 0
-37 -66 -65 -61 78 50 0
39 76 51 50 35 107 0
20 4 -91 0
11 48 -92 0
-63 -24 -23 40 0
-45 5 -106 -91 0
-87 -8 118 -91 0
-20 62 -8 0
14 -58 0
-104 -118 78 45 82 0
-72 -90 48 0
49 -61 -65 95 0
-17 1 92 77 0
-99 -30 -23 -29 -117 0
-73 82 0
-115 107 -111 -31 58 -14 0
16 87 -116 90 0
23 7 109 -18 77 0
-110 102 -37 0
-3 25 0
-104 -59 -71 -29 -52 0
-77 99 69 -114 0
73 43 5 0
89 75 0
-95 -74 40 33 101 0
-29 -70 34 45 0
-53 96 0
-84 91 0
63 -94 70 -33 36 0
-77 46 96 16 0
-77 -85 86 0
30 -92 95 0
-78 -36 -93 85 59 -72 0
118 0
